0 91 111
1 114 116
2 102 116
3 110 117
4 105 119
5 121 122
6 113 125
7 116 127
8 123 127
9 124 126
10 124 125
11 98 124
12 117 123
13 93 122
14 109 120
15 109 118
16 104 117
17 87 117
18 113 117
19 116 117
20 112 116
21 113 115
22 103 114
23 112 113
24 110 112
25 98 111
26 108 110
27 108 111
28 110 110
29 103 109
30 105 107
31 82 106
32 101 103
33 97 102
34 94 100
35 83 99
36 103 104
37 66 101
38 98 98
39 94 97
40 97 97
41 70 96
42 92 94
43 58 92
44 75 91
45 87 89
46 85 88
47 87 87
48 61 86
49 85 85
50 82 84
51 71 82
52 79 81
53 80 80
54 70 79
55 65 78
56 76 79
57 78 78
58 79 79
59 74 78
60 76 77
61 76 76
62 68 75
63 41 73
64 66 70
65 68 68
66 30 64
67 55 61
68 54 59
69 47 57
70 53 60
71 62 62
72 59 61
73 51 60
74 58 60
75 57 59
76 57 58
77 51 54
78 45 51
79 33 53
80 49 52
81 51 51
82 49 50
83 35 48
84 44 47
85 38 45
86 35 48
87 42 48
88 48 49
89 16 48
90 45 47
91 35 45
92 40 44
93 41 43
94 42 42
95 39 41
96 37 39
97 32 37
98 19 34
99 30 33
100 24 32
101 32 32
102 29 31
103 26 29
104 28 28
105 17 28
106 27 27
107 20 26
108 13 25
109 15 27
110 26 27
111 18 27
112 27 27
113 25 26
114 20 25
115 13 25
116 22 24
117 15 23
118 4 22
119 13 22
120 19 21
121 19 20
122 17 19
123 17 18
124 14 19
125 20 20
126 19 19
127 18 18
128 14 16
129 10 15
130 4 15
131 16 16
132 14 15
133 14 14
134 13 13
135 9 12
136 5 11
137 5 9
138 5 10
139 4 8
140 3 6
141 4 4
142 1 3
143 1 1

